W=6;
H=5;

MAX_TIME=11;
MAX_TRACKS=11;

TARGET=(5,6);

TRAINS=[(1,4,DOWN),(5,1,RIGHT)];

INIT_POS=[
(1,4,STRAIGHT_TD),
(2,4,STRAIGHT_TD),
(5,1,STRAIGHT_RL),
(5,3,STRAIGHT_RL),
(5,6,STRAIGHT_RL),
];
TUNNEL_PAIRS=[];

GATES=[
(2,4,1,false),
];
ACTIVATIONS=[
(5,3,1),
];

DSWITCHES=[];

STATIONS=[];
